c ca-CondMat: Collaboration network of Arxiv Condensed Matter category (there is an edge if authors coauthored at least one paper) https://snap.stanford.edu/data/ca-CondMat.html
p edge 27 26
e 1 22
e 2 14
e 3 14
e 4 22
e 5 12
e 5 25
e 6 22
e 7 14
e 8 22
e 9 17
e 10 14
e 11 13
e 11 19
e 11 22
e 12 22
e 14 20
e 14 27
e 14 18
e 14 21
e 14 17
e 14 24
e 15 16
e 16 17
e 18 22
e 22 26
e 22 23
l 27
t 15 25
